data;


param d:= 100;
param r:=5;
param p:=0.700000;
param M:=1000;
param U:=
         1         1        1.213861e+00
         2         1       -8.339937e-02
         3         1        6.112986e-01
         4         1       -1.859575e-01
         5         1       -1.416621e+00
         6         1       -2.301386e-01
         7         1        7.673263e-01
         8         1       -3.200447e-01
         9         1        1.426182e+00
        10         1        1.478699e+00
        11         1       -1.917949e+00
        12         1       -1.764910e-01
        13         1       -2.538897e+00
        14         1        7.650651e-01
        15         1       -3.161791e-01
        16         1       -1.331218e+00
        17         1       -4.595610e-01
        18         1       -9.850264e-01
        19         1       -1.166734e-01
        20         1        2.690134e-01
        21         1        1.012027e+00
        22         1        9.630748e-03
        23         1        7.577440e-01
        24         1        4.796992e-01
        25         1       -1.337981e+00
        26         1       -2.758304e-01
        27         1       -5.294979e-01
        28         1        1.793740e+00
        29         1        4.827223e-01
        30         1        4.094044e-01
        31         1        5.024942e-01
        32         1        4.032416e-01
        33         1        3.813812e-02
        34         1       -9.155177e-01
        35         1       -1.040397e+00
        36         1       -2.558218e+00
        37         1        3.630847e-01
        38         1       -6.783944e-01
        39         1       -1.089740e+00
        40         1        9.780417e-01
        41         1       -3.105031e-01
        42         1        1.557664e-01
        43         1       -1.669780e+00
        44         1       -4.515759e-01
        45         1       -3.280046e-01
        46         1       -7.572504e-01
        47         1       -7.069000e-01
        48         1        1.173315e+00
        49         1       -8.756452e-01
        50         1       -2.535023e-01
        51         1       -4.996676e-01
        52         1       -1.536917e+00
        53         1        2.697841e-01
        54         1       -8.548655e-01
        55         1        1.677803e+00
        56         1       -2.559848e+00
        57         1        1.260849e+00
        58         1       -8.293072e-01
        59         1       -1.047819e+00
        60         1        7.056839e-01
        61         1        2.406091e+00
        62         1       -6.142651e-01
        63         1        4.466268e-01
        64         1        4.684930e-01
        65         1        5.134625e-01
        66         1       -8.172607e-01
        67         1       -6.052819e-02
        68         1        2.008968e+00
        69         1       -1.257342e+00
        70         1        1.819520e-01
        71         1       -1.894272e+00
        72         1       -2.077658e-01
        73         1       -4.113305e-01
        74         1       -1.375970e+00
        75         1        1.140089e+00
        76         1       -7.168103e-01
        77         1        1.131648e+00
        78         1        1.496857e+00
        79         1       -2.632452e-01
        80         1       -3.904776e-01
        81         1        1.261049e+00
        82         1       -7.603788e-01
        83         1        9.170724e-01
        84         1       -1.145561e-01
        85         1       -7.852678e-01
        86         1        9.259134e-01
        87         1        3.398820e-01
        88         1        3.462010e-01
        89         1        3.331457e-01
        90         1       -6.670497e-01
        91         1        4.892540e-01
        92         1        4.314665e-01
        93         1       -1.381178e+00
        94         1       -1.319024e+00
        95         1        7.791365e-01
        96         1        5.715103e-01
        97         1       -1.253382e+00
        98         1       -3.338343e-01
        99         1        2.647211e-01
       100         1       -2.141261e-01
         1         2        4.798966e-01
         2         2       -6.796126e-01
         3         2       -9.823412e-01
         4         2       -2.332303e-01
         5         2        4.689093e-03
         6         2        1.200988e+00
         7         2       -5.238805e-02
         8         2        1.163078e+00
         9         2        2.056929e-02
        10         2        1.253899e+00
        11         2       -2.788265e+00
        12         2        1.550384e+00
        13         2       -3.318636e-01
        14         2       -7.286005e-01
        15         2       -3.718300e-01
        16         2       -1.136949e+00
        17         2        5.447021e-01
        18         2       -2.827655e-01
        19         2       -8.488560e-02
        20         2        9.238160e-01
        21         2        2.634968e+00
        22         2       -7.142766e-01
        23         2       -1.273222e+00
        24         2       -2.909988e-01
        25         2       -5.822995e-01
        26         2       -2.471941e+00
        27         2       -7.707748e-01
        28         2        8.108897e-01
        29         2       -5.867665e-01
        30         2       -4.775512e-01
        31         2        4.166222e-01
        32         2       -1.379858e+00
        33         2        1.675163e+00
        34         2       -4.744294e-03
        35         2        2.183357e-01
        36         2        3.976886e-01
        37         2       -3.024750e-01
        38         2        1.323774e+00
        39         2       -1.040389e+00
        40         2       -1.274150e+00
        41         2        3.937097e-01
        42         2       -9.574767e-01
        43         2        8.304717e-01
        44         2        1.164103e+00
        45         2        1.245212e+00
        46         2        1.968491e-01
        47         2        7.406263e-01
        48         2       -9.587069e-01
        49         2       -5.976881e-01
        50         2        5.030826e-01
        51         2        2.531797e-01
        52         2       -1.172934e+00
        53         2       -2.171228e-01
        54         2        1.029683e-01
        55         2       -9.962938e-01
        56         2        1.832206e+00
        57         2        8.175200e-02
        58         2        3.733876e-01
        59         2       -8.456317e-01
        60         2        1.020029e+00
        61         2       -1.944527e-01
        62         2        1.202058e+00
        63         2       -8.879956e-01
        64         2        1.339822e-02
        65         2       -8.237705e-01
        66         2        2.545381e+00
        67         2       -8.449052e-01
        68         2        1.425454e+00
        69         2       -1.270944e+00
        70         2        1.920369e-01
        71         2        5.891332e-01
        72         2       -4.822032e-01
        73         2        2.351711e-01
        74         2        2.430330e+00
        75         2        4.966977e-01
        76         2       -8.948915e-01
        77         2       -9.139147e-01
        78         2        9.763431e-01
        79         2       -1.101072e+00
        80         2        7.188102e-01
        81         2        2.306447e-01
        82         2       -2.689391e-01
        83         2       -1.286572e+00
        84         2       -2.602781e-01
        85         2        1.531932e+00
        86         2        7.026473e-01
        87         2       -2.473025e-01
        88         2        1.022638e+00
        89         2        9.548775e-01
        90         2        4.057265e-01
        91         2       -9.260126e-01
        92         2       -1.156208e-01
        93         2       -4.276776e-01
        94         2        9.883313e-01
        95         2       -9.379769e-01
        96         2       -1.395906e+00
        97         2        1.444730e+00
        98         2       -7.281844e-01
        99         2       -1.317072e+00
       100         2        2.535578e-01
         1         3       -1.470826e-01
         2         3        6.286910e-01
         3         3        1.066586e+00
         4         3        9.099606e-01
         5         3       -2.318017e-01
         6         3        1.484518e-01
         7         3       -6.632316e-01
         8         3       -4.764220e-01
         9         3        4.761264e-01
        10         3       -1.361112e+00
        11         3        6.485827e-01
        12         3       -6.965750e-01
        13         3       -1.145154e+00
        14         3        1.305676e+00
        15         3       -1.199081e+00
        16         3       -2.162070e-02
        17         3       -4.266419e-01
        18         3        9.895931e-01
        19         3        5.535204e-01
        20         3       -6.005021e-01
        21         3        1.373461e+00
        22         3        5.590487e-01
        23         3       -9.415550e-01
        24         3       -1.857707e+00
        25         3       -1.901335e+00
        26         3        3.035232e-01
        27         3        4.109561e-02
        28         3       -1.368391e+00
        29         3       -1.426236e-01
        30         3        1.604951e+00
        31         3        7.621464e-01
        32         3        8.756623e-01
        33         3       -5.062281e-01
        34         3       -7.556577e-01
        35         3        9.439323e-01
        36         3        8.967235e-01
        37         3       -5.480765e-01
        38         3        5.256892e-01
        39         3        3.987184e-01
        40         3        9.291680e-01
        41         3        1.578573e-01
        42         3        5.114011e-01
        43         3        7.026577e-01
        44         3       -6.334649e-01
        45         3       -2.492220e-01
        46         3       -2.593086e-01
        47         3        1.266952e-01
        48         3       -4.686818e-01
        49         3       -2.261879e-01
        50         3        4.155390e-01
        51         3       -2.288912e-01
        52         3       -3.169987e-01
        53         3        8.669689e-01
        54         3        1.284782e+00
        55         3       -1.347598e+00
        56         3       -8.411276e-01
        57         3        2.129610e+00
        58         3        1.469205e-01
        59         3        7.858988e-01
        60         3       -8.354487e-01
        61         3        1.241487e+00
        62         3       -1.689530e+00
        63         3       -1.144251e+00
        64         3        1.141400e+00
        65         3        3.149336e+00
        66         3        4.784181e-01
        67         3        1.362434e+00
        68         3       -3.039827e-01
        69         3       -8.226219e-01
        70         3       -2.559622e-01
        71         3        6.180095e-01
        72         3        7.024103e-01
        73         3       -1.511142e+00
        74         3       -1.701595e-01
        75         3       -5.582469e-01
        76         3        7.068023e-01
        77         3        9.516927e-01
        78         3       -3.040112e-01
        79         3       -2.138894e-01
        80         3        3.963520e-01
        81         3        3.752594e-01
        82         3       -1.125456e-01
        83         3       -6.453600e-01
        84         3       -2.334605e-01
        85         3       -9.456019e-01
        86         3        2.851032e-01
        87         3        6.322698e-01
        88         3       -5.864435e-01
        89         3       -4.182580e-01
        90         3        2.595402e-01
        91         3       -4.320549e-01
        92         3        6.397199e-01
        93         3       -1.316985e+00
        94         3        6.382404e-01
        95         3        9.818919e-01
        96         3        2.481689e-02
        97         3        3.838090e-01
        98         3        8.814550e-01
        99         3        1.950291e+00
       100         3       -1.015129e-01
         1         4        1.072125e+00
         2         4       -2.130628e-02
         3         4       -2.812780e+00
         4         4        9.222924e-01
         5         4       -7.851386e-01
         6         4       -1.461461e+00
         7         4       -4.015599e-01
         8         4       -3.991085e-01
         9         4        1.239547e+00
        10         4        1.170846e+00
        11         4       -3.268223e-01
        12         4       -6.305679e-01
        13         4        4.694680e-01
        14         4       -7.758660e-01
        15         4        5.224327e-01
        16         4       -5.359667e-01
        17         4       -4.858525e-01
        18         4       -7.656930e-01
        19         4        4.089671e-01
        20         4        6.360070e-02
        21         4       -5.789873e-01
        22         4        3.898723e-02
        23         4        1.891821e+00
        24         4       -1.946706e-01
        25         4       -9.856310e-01
        26         4        1.886299e-01
        27         4       -8.592385e-01
        28         4       -2.006462e-01
        29         4       -2.423967e-01
        30         4       -3.142063e-01
        31         4       -8.103836e-02
        32         4        1.323317e+00
        33         4       -1.673439e-01
        34         4        6.400828e-01
        35         4        2.869619e-02
        36         4        8.885083e-01
        37         4       -8.554733e-01
        38         4       -1.105607e+00
        39         4        1.528189e+00
        40         4       -9.231063e-01
        41         4       -1.651080e-01
        42         4       -6.244363e-01
        43         4       -7.645342e-01
        44         4        2.139918e-01
        45         4        7.892473e-01
        46         4        5.666666e-01
        47         4       -8.243644e-01
        48         4        2.030140e-01
        49         4       -4.604326e-01
        50         4       -1.057840e+00
        51         4        1.048011e+00
        52         4       -6.609530e-01
        53         4       -3.430110e-01
        54         4        3.277255e-01
        55         4       -4.603324e-01
        56         4       -3.226771e-01
        57         4        3.308052e-02
        58         4        1.072204e+00
        59         4       -1.866738e+00
        60         4        1.143051e+00
        61         4       -4.788744e-01
        62         4       -2.906342e-01
        63         4        2.055507e-01
        64         4        6.439862e-01
        65         4       -1.236838e-01
        66         4        2.301452e-01
        67         4        4.899145e-01
        68         4       -5.234904e-01
        69         4        1.778747e-01
        70         4        6.098978e-01
        71         4       -9.747188e-01
        72         4        1.251712e-01
        73         4       -3.874798e-01
        74         4       -6.715989e-01
        75         4        8.580074e-01
        76         4       -1.657810e+00
        77         4        1.430057e+00
        78         4       -2.069110e-01
        79         4        9.488857e-01
        80         4       -1.482055e-01
        81         4        1.342285e+00
        82         4       -8.897278e-01
        83         4       -8.976671e-01
        84         4        4.983627e-01
        85         4        5.776411e-01
        86         4        2.691899e-01
        87         4       -4.968075e-01
        88         4        1.305664e+00
        89         4       -5.754935e-01
        90         4        1.075529e-01
        91         4       -9.362283e-01
        92         4       -2.163907e+00
        93         4       -1.153472e+00
        94         4       -2.310843e+00
        95         4        7.503714e-01
        96         4       -8.535713e-01
        97         4        7.951682e-01
        98         4        2.143275e-01
        99         4       -1.387993e+00
       100         4       -6.048943e-01
         1         5       -1.521995e+00
         2         5       -6.421232e-01
         3         5       -2.939651e-01
         4         5       -6.448846e-02
         5         5       -2.830005e-01
         6         5        1.135603e-01
         7         5        2.609162e-01
         8         5        9.931086e-01
         9         5       -1.908686e-01
        10         5       -1.439855e-01
        11         5        8.206907e-01
        12         5        1.207280e+00
        13         5       -1.971187e+00
        14         5        1.616697e+00
        15         5        1.749209e+00
        16         5        8.466092e-01
        17         5       -6.023734e-01
        18         5       -9.912094e-01
        19         5       -5.468500e-01
        20         5       -1.050590e+00
        21         5       -6.993382e-01
        22         5       -4.707627e-01
        23         5        9.664569e-02
        24         5       -8.238636e-01
        25         5       -7.615551e-01
        26         5       -9.699844e-01
        27         5        1.367102e+00
        28         5       -9.588367e-01
        29         5        5.901218e-01
        30         5        1.448276e+00
        31         5       -3.173957e-01
        32         5       -1.081345e+00
        33         5        2.089702e-01
        34         5        9.379181e-01
        35         5        9.910731e-02
        36         5       -1.036318e+00
        37         5        4.182826e-01
        38         5       -1.148782e+00
        39         5        2.373107e-01
        40         5       -1.632531e+00
        41         5        7.111077e-01
        42         5       -1.008882e+00
        43         5        1.057880e+00
        44         5       -9.395711e-01
        45         5        1.429679e-01
        46         5       -5.628923e-01
        47         5       -1.929755e+00
        48         5        7.880179e-02
        49         5       -1.001006e+00
        50         5       -2.755089e+00
        51         5        5.583592e-01
        52         5        3.759547e-01
        53         5       -1.075097e+00
        54         5        1.249613e+00
        55         5        3.358400e-01
        56         5       -4.506135e-01
        57         5       -6.164573e-01
        58         5        4.234569e-01
        59         5        4.836310e-01
        60         5       -6.138605e-01
        61         5        6.542153e-01
        62         5       -4.415711e-01
        63         5       -1.660494e-01
        64         5        2.117729e-01
        65         5        1.233225e+00
        66         5       -1.279278e+00
        67         5       -1.519284e-02
        68         5        9.588887e-01
        69         5       -1.760572e+00
        70         5        6.526398e-01
        71         5        1.033324e+00
        72         5       -1.525194e-01
        73         5       -1.462096e+00
        74         5       -1.073626e-01
        75         5       -8.080622e-01
        76         5       -5.216798e-01
        77         5        4.559782e-01
        78         5        1.306665e+00
        79         5       -1.330420e+00
        80         5        1.338526e+00
        81         5        1.400202e-01
        82         5        5.270292e-02
        83         5        2.236829e+00
        84         5       -1.863557e-01
        85         5        1.805757e-01
        86         5       -4.822376e-01
        87         5        1.169610e+00
        88         5       -5.213963e-01
        89         5       -2.111871e-01
        90         5       -1.437691e-01
        91         5       -9.448678e-01
        92         5        1.067134e+00
        93         5        1.849146e-01
        94         5        9.791731e-01
        95         5        3.456307e-01
        96         5       -7.353738e-01
        97         5        8.857069e-01
        98         5       -2.680773e-01
        99         5        1.103609e+00
       100         5       -1.609771e-01
;

param theta:=
    1       -2.013523e-02
    2       -3.707082e-01
    3        6.510727e-01
    4       -6.847701e-01
    5        3.490552e-01
;
param X_true:=
    1       -1.682870e+00
    2        3.931906e-01
    3        2.937857e+00
    4        7.465264e-02
    5        2.372405e-01
    6        8.027937e-01
    7       -1.784174e-01
    8       -1.180201e-01
    9       -6.504744e-01
   10       -2.142344e+00
   11        2.096490e+00
   12       -8.621818e-02
   13       -1.516374e+00
   14        2.256163e+00
   15       -2.495725e-01
   16        1.053373e+00
   17       -4.064852e-01
   18        9.243399e-01
   19       -1.488079e-01
   20       -1.167968e+00
   21        8.911212e-02
   22        3.942512e-01
   23       -1.190769e+00
   24       -1.242417e+00
   25       -6.228586e-01
   26        7.367668e-01
   27        1.119596e+00
   28       -1.442449e+00
   29        2.642323e-01
   30        2.011269e+00
   31        4.552307e-01
   32       -1.757228e-01
   33       -7.868429e-01
   34       -6.331386e-01
   35        5.822601e-01
   36       -4.447413e-01
   37        5.275904e-01
   38        1.762416e-01
   39       -2.224343e-01
   40        1.084718e+00
   41        1.074973e-01
   42        7.522693e-01
   43        1.051296e+00
   44       -1.276604e+00
   45       -1.010248e+00
   46       -8.521385e-01
   47       -1.195642e-01
   48       -2.645039e-02
   49        9.425311e-02
   50        8.924895e-03
   51       -7.489709e-01
   52        1.017788e+00
   53        4.245680e-01
   54        1.088572e+00
   55        4.373411e-02
   56       -1.175637e+00
   57        1.107812e+00
   58       -7.742929e-01
   59        2.243039e+00
   60       -1.894199e+00
   61        1.443124e+00
   62       -1.459697e+00
   63       -4.903542e-01
   64        4.368042e-01
   65        2.629102e+00
   66       -1.230281e+00
   67        9.449649e-01
   68       -9.935708e-02
   69       -8.935646e-01
   70       -4.957298e-01
   71        1.213947e+00
   72        2.450656e-01
   73       -1.400241e+00
   74       -4.642043e-01
   75       -1.555087e+00
   76        1.891311e+00
   77        5.340848e-02
   78       -6.382148e-03
   79       -7.988255e-01
   80        4.891285e-01
   81       -6.581392e-01
   82        6.946052e-01
   83        1.429389e+00
   84       -4.503793e-01
   85       -1.583754e+00
   86       -4.169843e-01
   87        1.371886e+00
   88       -1.765770e+00
   89       -4.483431e-01
   90       -1.485759e-01
   91        2.602797e-01
   92        2.330278e+00
   93        2.457849e-01
   94        1.969583e+00
   95        7.655419e-01
   96        8.074070e-01
   97       -5.998191e-01
   98        5.637344e-01
   99        2.913089e+00
  100        2.717120e-01
;
param X:=
    1        1.139183e+00
    2        3.931906e-01
    3        2.937857e+00
    4        1.257637e+00
    5        2.372405e-01
    6       -7.711568e-01
    7        1.919732e+00
    8       -1.180201e-01
    9       -6.504744e-01
   10        4.930170e-01
   11        3.397421e-01
   12       -8.621818e-02
   13       -1.516374e+00
   14        1.140442e+00
   15       -4.169906e-01
   16        1.053373e+00
   17       -4.064852e-01
   18       -4.390816e-01
   19       -1.488079e-01
   20       -6.131621e-01
   21        2.509378e-02
   22        1.352040e+00
   23       -1.916558e+00
   24       -4.210035e-02
   25       -6.228586e-01
   26        1.131836e+00
   27       -3.293493e-01
   28       -7.851820e-03
   29       -1.137063e+00
   30        2.011269e+00
   31       -1.336402e+00
   32        8.896353e-01
   33       -8.974632e-01
   34        2.803351e+00
   35        5.822601e-01
   36       -4.447413e-01
   37       -1.420159e+00
   38        1.762416e-01
   39       -2.224343e-01
   40       -4.031072e-01
   41        1.074973e-01
   42       -4.814156e-01
   43        1.051296e+00
   44        8.612959e-01
   45       -9.394080e-01
   46       -8.521385e-01
   47       -6.209740e-01
   48       -7.538937e-01
   49        9.425311e-02
   50        1.557798e+00
   51       -7.489709e-01
   52        4.271621e-02
   53        4.245680e-01
   54       -1.401435e+00
   55       -7.232769e-02
   56        4.156841e-01
   57        1.434687e-01
   58        2.030712e-01
   59        8.675774e-02
   60       -1.894199e+00
   61       -8.468902e-01
   62       -8.116319e-01
   63       -4.856793e-01
   64        7.316417e-01
   65        2.629102e+00
   66       -1.230281e+00
   67        9.449649e-01
   68        4.677154e-03
   69        3.265816e-01
   70       -1.725851e+00
   71       -8.304297e-01
   72        1.215338e+00
   73       -1.739652e-01
   74        1.439910e+00
   75       -9.875540e-01
   76       -9.197498e-04
   77        5.340848e-02
   78       -7.330244e-01
   79       -7.988255e-01
   80        1.658407e+00
   81        9.836762e-01
   82        5.077581e-01
   83        1.279921e+00
   84        2.652148e-01
   85        5.226602e-01
   86       -1.154748e+00
   87       -2.068482e+00
   88       -1.021026e+00
   89       -2.602913e-01
   90       -7.114401e-01
   91        7.438455e-02
   92        2.330278e+00
   93        1.539836e-01
   94       -1.143677e+00
   95        7.655419e-01
   96        7.869200e-01
   97       -6.129357e-01
   98        1.017888e+00
   99       -8.753829e-01
  100       -7.107881e-01
;
param outliervec:=
    1    1
    2    0
    3    0
    4    1
    5    0
    6    1
    7    1
    8    0
    9    0
   10    1
   11    1
   12    0
   13    0
   14    1
   15    1
   16    0
   17    0
   18    1
   19    0
   20    1
   21    1
   22    1
   23    1
   24    1
   25    0
   26    1
   27    1
   28    1
   29    1
   30    0
   31    1
   32    1
   33    1
   34    1
   35    0
   36    0
   37    1
   38    0
   39    0
   40    1
   41    0
   42    1
   43    0
   44    1
   45    1
   46    0
   47    1
   48    1
   49    0
   50    1
   51    0
   52    1
   53    0
   54    1
   55    1
   56    1
   57    1
   58    1
   59    1
   60    0
   61    1
   62    1
   63    1
   64    1
   65    0
   66    0
   67    0
   68    1
   69    1
   70    1
   71    1
   72    1
   73    1
   74    1
   75    1
   76    1
   77    0
   78    1
   79    0
   80    1
   81    1
   82    1
   83    1
   84    1
   85    1
   86    1
   87    1
   88    1
   89    1
   90    1
   91    1
   92    0
   93    1
   94    1
   95    0
   96    1
   97    1
   98    1
   99    1
  100    1
;